
%FILE DATA:	Soccer Computational Problem for MiniZinc Models	%
%AUTHOR:	Jack Wall	%
%CONTACT:  	116397063@umail.ucc.ie			%
%LAST UPDATE:	03/03/2020, 16:21:29						%
%DESCRIPTION: 	60 games played with 30 games left				%


n=10; %number of teams

%Games to play
games=[|10,6|8,9|9,4|6,1|1,3|4,7|5,4|5,6|8,5|3,9|3,8|4,1|8,1|8,4|1,5|3,5|4,10|5,8|10,9|9,3|6,8|2,10|4,2|9,8|4,8|6,10|4,9|5,10|1,2|5,9|];

%Initial points
iPoints=[10,28,16,8,19,19,19,16,13,16];

%POSITION CONSTRAINTS
% [|teamID, operator, position|...]
% operators index:
%  1 for =  operator
%  2 for >  operator
%  3 for >= operator
%  4 for <  operator
%  5 for <= operator
positionConstraints=[|2,3,1|8,5,2|5,3,3|9,2,3|10,1,5|];